40
    17    28    62    91    89    61    24    81     8    99    87    82    52    81    31    48    28    98    14    32    69    94    71    94    38    67    16    95    24    67    41    99    48    97    16    74    54    14    90    91
     3     6     8     8     9     2     2    10     2     1     4     6     2     6     5     1     4     5     6     4     6     3     5     2     2     8     1     4     4     6     7     1     3    10     9     2     9     6     9     1
   957  2105  1120  1956  1943  1859  1043  2018  1305  1088   763  1805   895  1461  1409   896  1531   990  1491  1856  1429   736  1391   948  1056   863  1444   886  1564  1650   751  1549  1117   964   942  1360  1852   968   720   790
